14 7

90 87 56 19 51 67 20 73 48 38 22  9 94 89
73 99 17  0 99 70 31  4 62 97 86 99 93 15
59 99 90 95 65 55 97  1 34 25 13 25 84 50
67 60 53 37  9 22 61 41 49 59 35 23 66 45
57 34 96 42 56 75 94 27 37 57  1 25 88 40
36 66 49 86 39 83 14 21 56 13 29  8  7 31
32 65 35 98 18 97 24 55 17 85 11  7 63 78
